c Lingeling SAT Solver
c 
c Version azf 92032848c138b2f33629ad24394d60a3787a1046
c 
c Copyright (C) 2010-2014 Armin Biere JKU Linz Austria.
c All rights reserved.
c 
c released Don Mai 22 22:08:00 CEST 2014
c compiled Mon Oct  6 05:55:43 PDT 2014
c 
c gcc (Ubuntu 4.8.2-19ubuntu1) 4.8.2
c -Wall -O3 -DNDBLSCR -DNLGLOG -DNDEBUG -DNCHKSOL -DNLGLPICOSAT -DNLGLDRUPLIG
c -DNLGLYALSAT
c Linux ubuntu 3.13.0-32-generic x86_64
c 
c reading input file benchmark-sat/translations/gc-fpsol2.i.1-64.cnf
c no embedded options
c found 'p cnf 31744 1746288' header
c read 31744 variables, 1746288 clauses, 3523328 literals in 0.00 seconds
c 
c  seconds         irredundant          redundant clauses agility   height
c          variables clauses conflicts large ternary binary    glue         MB
c 
c S    0.0   31744  1746288         0       0      0     0   0  0.0   0.0   35
c P    1.0   31744  1577070         0       0      0     0   0  0.0   0.0   39
c S    2.0   17188  1286637      1019     903      0     0   1 75.1 2900.4   32
c P    5.0   17188   746097      2000    1776      0 540540   1 82.4 2205.0   47
c S   10.0   16947   745856      2000       0      0 525357   1 82.4 2205.0   42
c S   20.0   16947   745856     27929    6757      0 525357   1 103.6 964.9   52
c S   30.0   16947   745856     75420   11802      0 525357   1 123.6 785.1   61
c P   40.0   16947   745856    124003   18389      0 525357   2 113.6 752.9   68
c S   50.0   16947   745856    164659   11628      0 525357   1 110.0 729.3   66
c S   60.0   16947   745856    218864   21126      0 525357   1 110.9 714.6   77
c S  120.0   16947   745856    593906   34610      0 525357   0 114.4 694.1  135
c S  180.0   16947   745856    923989   44306      0 525357   0 112.3 688.4  146
c S  240.0   16947   745856   1274313   60698      0 525357   1 123.6 687.2  165
c S  300.0   16947   745856   1609570   70724      0 525357   1 120.0 682.9  207
c S  600.0   16947   745856   3334901   91136      0 525357   1 116.2 678.4  311
c S  900.0   16947   745856   4967016   64441      0 525357   1 116.9 678.9  265
